c ind 1 26 27 28 29 30 31 32 33 34 35 36 37 38 39 40 41 42 43 44 45 46 47 48 49 50 0
p cnf 82 208
1 -3 0
2 -3 0
-1 -2 3 0
1 -5 0
2 -5 0
4 -5 0
-1 -2 -4 5 0
1 -7 0
2 -7 0
4 -7 0
6 -7 0
-1 -2 -4 -6 7 0
1 -9 0
2 -9 0
4 -9 0
6 -9 0
8 -9 0
-1 -2 -4 -6 -8 9 0
1 -11 0
2 -11 0
4 -11 0
6 -11 0
8 -11 0
10 -11 0
-1 -2 -4 -6 -8 -10 11 0
1 -13 0
2 -13 0
4 -13 0
6 -13 0
8 -13 0
10 -13 0
12 -13 0
-1 -2 -4 -6 -8 -10 -12 13 0
1 -15 0
2 -15 0
4 -15 0
6 -15 0
8 -15 0
10 -15 0
12 -15 0
14 -15 0
-1 -2 -4 -6 -8 -10 -12 -14 15 0
1 -17 0
2 -17 0
4 -17 0
6 -17 0
8 -17 0
10 -17 0
12 -17 0
14 -17 0
16 -17 0
-1 -2 -4 -6 -8 -10 -12 -14 -16 17 0
1 -19 0
2 -19 0
4 -19 0
6 -19 0
8 -19 0
10 -19 0
12 -19 0
14 -19 0
16 -19 0
18 -19 0
-1 -2 -4 -6 -8 -10 -12 -14 -16 -18 19 0
1 -20 0
2 -20 0
4 -20 0
6 -20 0
8 -20 0
10 -20 0
12 -20 0
14 -20 0
16 -20 0
-18 -20 0
-1 -2 -4 -6 -8 -10 -12 -14 -16 18 20 0
1 -21 0
2 -21 0
4 -21 0
6 -21 0
8 -21 0
10 -21 0
12 -21 0
14 -21 0
-16 -21 0
-1 -2 -4 -6 -8 -10 -12 -14 16 21 0
1 -22 0
2 -22 0
4 -22 0
6 -22 0
8 -22 0
10 -22 0
12 -22 0
-14 -22 0
-1 -2 -4 -6 -8 -10 -12 14 22 0
1 -23 0
2 -23 0
4 -23 0
6 -23 0
8 -23 0
10 -23 0
-12 -23 0
-1 -2 -4 -6 -8 -10 12 23 0
1 -24 0
2 -24 0
4 -24 0
6 -24 0
8 -24 0
-10 -24 0
-1 -2 -4 -6 -8 10 24 0
25 0
-1 26 -51 0
1 -26 -51 0
-1 -26 51 0
1 26 51 0
-51 0
-2 32 -52 0
2 -32 -52 0
-2 -32 52 0
2 32 52 0
-52 0
-4 38 -53 0
4 -38 -53 0
-4 -38 53 0
4 38 53 0
-53 0
-6 44 -54 0
6 -44 -54 0
-6 -44 54 0
6 44 54 0
-54 0
-8 50 -55 0
8 -50 -55 0
-8 -50 55 0
8 50 55 0
-55 0
-38 56 0
38 -56 0
-38 -57 0
38 -57 0
38 58 0
-57 58 0
-38 57 -58 0
-10 -58 -59 0
10 58 -59 0
-10 58 59 0
10 -58 59 0
-59 0
-26 60 0
26 -60 0
-26 -61 0
26 -61 0
26 62 0
-61 62 0
-26 61 -62 0
-12 -62 -63 0
12 62 -63 0
-12 62 63 0
12 -62 63 0
-63 0
-32 64 0
32 -64 0
-32 -65 0
32 -65 0
32 66 0
-65 66 0
-32 65 -66 0
-14 -66 -67 0
14 66 -67 0
-14 66 67 0
14 -66 67 0
-67 0
-44 68 0
44 -68 0
-44 -69 0
44 -69 0
44 70 0
-69 70 0
-44 69 -70 0
-16 -70 -71 0
16 70 -71 0
-16 70 71 0
16 -70 71 0
-71 0
-50 72 0
50 -72 0
-50 -73 0
50 -73 0
50 74 0
-73 74 0
-50 73 -74 0
-18 -74 -75 0
18 74 -75 0
-18 74 75 0
18 -74 75 0
-75 0
20 21 22 23 24 0
-76 -78 -80 0
76 78 -80 0
-76 78 80 0
76 -78 80 0
-77 -79 -81 0
77 79 -81 0
-77 79 81 0
77 -79 81 0
-80 -82 0
-81 -82 0
80 81 82 0
-25 82 0
25 -82 0
c __CPROVER_malloc_is_new_array#1 FALSE
c goto_symex::\guard#1 1
c goto_symex::\guard#2 2
c goto_symex::\guard#3 4
c goto_symex::\guard#4 6
c goto_symex::\guard#5 8
c goto_symex::\guard#6 10
c goto_symex::\guard#7 12
c goto_symex::\guard#8 14
c goto_symex::\guard#9 16
c goto_symex::\guard#10 18
c __CPROVER_thread_id!0#1 FALSE FALSE FALSE FALSE FALSE FALSE FALSE FALSE FALSE FALSE FALSE FALSE FALSE FALSE FALSE FALSE FALSE FALSE FALSE FALSE FALSE FALSE FALSE FALSE FALSE FALSE FALSE FALSE FALSE FALSE FALSE FALSE FALSE FALSE FALSE FALSE FALSE FALSE FALSE FALSE FALSE FALSE FALSE FALSE FALSE FALSE FALSE FALSE FALSE FALSE FALSE FALSE FALSE FALSE FALSE FALSE FALSE FALSE FALSE FALSE FALSE FALSE FALSE FALSE
c __CPROVER_rounding_mode!0#1 FALSE FALSE FALSE FALSE FALSE FALSE FALSE FALSE FALSE FALSE FALSE FALSE FALSE FALSE FALSE FALSE FALSE FALSE FALSE FALSE FALSE FALSE FALSE FALSE FALSE FALSE FALSE FALSE FALSE FALSE FALSE FALSE
c __CPROVER_pipe_count#1 FALSE FALSE FALSE FALSE FALSE FALSE FALSE FALSE FALSE FALSE FALSE FALSE FALSE FALSE FALSE FALSE FALSE FALSE FALSE FALSE FALSE FALSE FALSE FALSE FALSE FALSE FALSE FALSE FALSE FALSE FALSE FALSE
c __CPROVER_deallocated#1 FALSE FALSE FALSE FALSE FALSE FALSE FALSE FALSE FALSE FALSE FALSE FALSE FALSE FALSE FALSE FALSE FALSE FALSE FALSE FALSE FALSE FALSE FALSE FALSE FALSE FALSE FALSE FALSE FALSE FALSE FALSE FALSE FALSE FALSE FALSE FALSE FALSE FALSE FALSE FALSE FALSE FALSE FALSE FALSE FALSE FALSE FALSE FALSE FALSE FALSE FALSE FALSE FALSE FALSE FALSE FALSE FALSE FALSE FALSE FALSE FALSE FALSE FALSE FALSE
c check::1::x!0@1#1 26 27 28 29 30 31 32 33 34 35 36 37 38 39 40 41 42 43 44 45 46 47 48 49 50
c __CPROVER_dead_object#1 FALSE FALSE FALSE FALSE FALSE FALSE FALSE FALSE FALSE FALSE FALSE FALSE FALSE FALSE FALSE FALSE FALSE FALSE FALSE FALSE FALSE FALSE FALSE FALSE FALSE FALSE FALSE FALSE FALSE FALSE FALSE FALSE FALSE FALSE FALSE FALSE FALSE FALSE FALSE FALSE FALSE FALSE FALSE FALSE FALSE FALSE FALSE FALSE FALSE FALSE FALSE FALSE FALSE FALSE FALSE FALSE FALSE FALSE FALSE FALSE FALSE FALSE FALSE FALSE
c __CPROVER_next_thread_id#1 FALSE FALSE FALSE FALSE FALSE FALSE FALSE FALSE FALSE FALSE FALSE FALSE FALSE FALSE FALSE FALSE FALSE FALSE FALSE FALSE FALSE FALSE FALSE FALSE FALSE FALSE FALSE FALSE FALSE FALSE FALSE FALSE FALSE FALSE FALSE FALSE FALSE FALSE FALSE FALSE FALSE FALSE FALSE FALSE FALSE FALSE FALSE FALSE FALSE FALSE FALSE FALSE FALSE FALSE FALSE FALSE FALSE FALSE FALSE FALSE FALSE FALSE FALSE FALSE
c __CPROVER_malloc_object#1 FALSE FALSE FALSE FALSE FALSE FALSE FALSE FALSE FALSE FALSE FALSE FALSE FALSE FALSE FALSE FALSE FALSE FALSE FALSE FALSE FALSE FALSE FALSE FALSE FALSE FALSE FALSE FALSE FALSE FALSE FALSE FALSE FALSE FALSE FALSE FALSE FALSE FALSE FALSE FALSE FALSE FALSE FALSE FALSE FALSE FALSE FALSE FALSE FALSE FALSE FALSE FALSE FALSE FALSE FALSE FALSE FALSE FALSE FALSE FALSE FALSE FALSE FALSE FALSE
c __CPROVER_malloc_size#1 FALSE FALSE FALSE FALSE FALSE FALSE FALSE FALSE FALSE FALSE FALSE FALSE FALSE FALSE FALSE FALSE FALSE FALSE FALSE FALSE FALSE FALSE FALSE FALSE FALSE FALSE FALSE FALSE FALSE FALSE FALSE FALSE FALSE FALSE FALSE FALSE FALSE FALSE FALSE FALSE FALSE FALSE FALSE FALSE FALSE FALSE FALSE FALSE FALSE FALSE FALSE FALSE FALSE FALSE FALSE FALSE FALSE FALSE FALSE FALSE FALSE FALSE FALSE FALSE
c __CPROVER_memory_leak#1 FALSE FALSE FALSE FALSE FALSE FALSE FALSE FALSE FALSE FALSE FALSE FALSE FALSE FALSE FALSE FALSE FALSE FALSE FALSE FALSE FALSE FALSE FALSE FALSE FALSE FALSE FALSE FALSE FALSE FALSE FALSE FALSE FALSE FALSE FALSE FALSE FALSE FALSE FALSE FALSE FALSE FALSE FALSE FALSE FALSE FALSE FALSE FALSE FALSE FALSE FALSE FALSE FALSE FALSE FALSE FALSE FALSE FALSE FALSE FALSE FALSE FALSE FALSE FALSE
